Data path: /scratch/opt/lxu/CFLG/benchmarks/Kgroup_A
Instance: K100.con.red
Result path: /scratch/opt/lxu/CFLG/results/Kgroup_A
Solver: Gurobi
Time limit: 7200
Formulation: LEFPAD
Cover: Small
julia --project=. src/main.jl /scratch/opt/lxu/CFLG/benchmarks/Kgroup_A K100.con.red /scratch/opt/lxu/CFLG/results/Kgroup_A Gurobi 7200 LEFPAD Small
The latest version of Julia in the `release` channel is 1.11.5+0.x64.linux.gnu. You currently have `1.11.4+0.x64.linux.gnu` installed. Run:

  juliaup update

in your terminal shell to install Julia 1.11.5+0.x64.linux.gnu and update the `release` channel to that version.
/scratch/opt/lxu/CFLG/benchmarks/Kgroup_A Gurobi 7200.0 /scratch/opt/lxu/CFLG/results/Kgroup_A K100.con.red LEFPAD Small
/scratch/opt/lxu/CFLG/benchmarks/Kgroup_A/K100.con.red

 read graph
data loaded


after absorb:45 45

max_piece:16
problem_graph/original graph: node: 65/45 edge: 211/191 dlt: 0.06600637257004059 break_avg_len: 0.23899937745739794 break_max_len: 1.0Vbar/V, Ebar/E(64, 65, 210, 211)
(1, 40)(1, 24)(2, 15)(2, 46)(39, 46)(2, 18)(2, 31)(3, 18)(3, 22)(3, 6)(3, 15)(3, 47)(42, 47)(4, 5)(4, 19)(4, 48)(21, 48)(4, 29)(4, 32)(4, 38)(4, 14)(4, 49)(41, 49)(4, 44)(5, 29)(5, 41)(5, 21)(6, 22)(6, 15)(6, 42)(1, 8)(8, 24)(9, 33)(9, 14)(9, 28)(9, 44)(9, 10)(10, 14)(4, 10)(10, 50)(28, 50)(10, 51)(44, 51)(10, 41)(10, 19)(10, 32)(1, 11)(8, 11)(11, 40)(11, 32)(1, 12)(8, 12)(12, 34)(12, 29)(11, 12)(5, 12)(12, 24)(13, 16)(13, 43)(13, 19)(13, 22)(14, 40)(14, 32)(14, 24)(15, 18)(3, 16)(16, 22)(6, 16)(15, 16)(16, 42)(17, 39)(3, 17)(2, 17)(17, 30)(17, 18)(17, 23)(3, 19)(19, 52)(22, 52)(19, 26)(16, 19)(19, 42)(3, 20)(18, 20)(20, 22)(20, 53)(25, 53)(6, 54)(20, 54)(20, 26)(20, 31)(20, 35)(15, 55)(20, 55)(16, 20)(20, 42)(21, 40)(21, 32)(7, 23)(23, 39)(2, 23)(23, 30)(18, 23)(3, 25)(22, 25)(6, 25)(25, 26)(15, 25)(16, 25)(25, 42)(3, 56)(26, 56)(18, 26)(22, 26)(6, 26)(15, 26)(16, 26)(26, 42)(7, 27)(27, 33)(2, 27)(27, 30)(17, 27)(18, 27)(23, 57)(27, 57)(27, 58)(37, 58)(14, 28)(4, 28)(28, 44)(19, 28)(28, 32)(29, 40)(29, 41)(11, 29)(21, 29)(29, 32)(7, 30)(2, 30)(18, 30)(30, 31)(15, 31)(18, 31)(32, 40)(24, 32)(7, 33)(30, 33)(17, 33)(18, 33)(23, 33)(1, 59)(34, 59)(14, 34)(8, 34)(24, 34)(26, 35)(15, 35)(16, 60)(35, 60)(35, 42)(19, 35)(22, 35)(25, 61)(35, 61)(6, 35)(7, 37)(33, 37)(37, 39)(2, 37)(30, 37)(17, 62)(37, 62)(18, 37)(23, 63)(37, 63)(13, 38)(29, 38)(38, 41)(5, 38)(21, 38)(15, 39)(18, 39)(31, 39)(24, 40)(14, 41)(40, 41)(11, 41)(21, 64)(41, 64)(32, 65)(41, 65)(18, 42)(22, 42)(15, 42)(26, 43)(16, 43)(35, 43)(42, 43)(19, 43)(22, 43)(25, 43)(6, 43)(14, 44)(19, 44)(22, 44)(16, 45)(20, 45)(25, 45)(6, 45)(Dict(51 => 3.0), [51], 65, 211)Set parameter TokenServer to value "solice01.zib.de"
Set parameter Threads to value 1
Set parameter OutputFlag to value 1
Gurobi Optimizer version 12.0.1 build v12.0.1rc0 (linux64 - "Debian GNU/Linux 12 (bookworm)")

CPU model: Intel(R) Xeon(R) Gold 5122 CPU @ 3.60GHz, instruction set [SSE2|AVX|AVX2|AVX512]
Thread count: 8 physical cores, 16 logical processors, using up to 1 threads

Non-default parameters:
Threads  1

Optimize a model with 276 rows, 633 columns and 1055 nonzeros
Model fingerprint: 0xe551aa2c
Coefficient statistics:
  Matrix range     [1e+00, 1e+00]
  Objective range  [1e+00, 1e+00]
  Bounds range     [1e+00, 1e+00]
  RHS range        [1e+00, 1e+00]
Presolve removed 276 rows and 633 columns
Presolve time: 0.00s
Presolve: All rows and columns removed
Iteration    Objective       Primal Inf.    Dual Inf.      Time
       0    1.0000000e+00   0.000000e+00   0.000000e+00      0s

Solved in 0 iterations and 0.00 seconds (0.00 work units)
Optimal objective  1.000000000e+00

User-callback calls 35, time in user-callback 0.00 sec
elapsed CPU time: 1.324983 seconds
Set parameter TokenServer to value "solice01.zib.de"
Set parameter Threads to value 1
Set parameter OutputFlag to value 1
Set parameter MIPGap to value 0.0001
Set parameter MIPGapAbs to value 0.999998
Set parameter TimeLimit to value 7198.675017

 more cuts: false 0.06600637257004059 false
is_attach:trueformulation:LEFPAD0 211 0

 model loaded

Gurobi Optimizer version 12.0.1 build v12.0.1rc0 (linux64 - "Debian GNU/Linux 12 (bookworm)")

CPU model: Intel(R) Xeon(R) Gold 5122 CPU @ 3.60GHz, instruction set [SSE2|AVX|AVX2|AVX512]
Thread count: 8 physical cores, 16 logical processors, using up to 1 threads

Non-default parameters:
TimeLimit  7198.675017
MIPGapAbs  0.999998
Threads  1

Optimize a model with 4085 rows, 3107 columns and 11357 nonzeros
Model fingerprint: 0x10ca2a68
Variable types: 1521 continuous, 1586 integer (1586 binary)
Coefficient statistics:
  Matrix range     [7e-08, 1e+00]
  Objective range  [1e+00, 1e+00]
  Bounds range     [5e-03, 1e+00]
  RHS range        [1e-06, 1e+00]
Found heuristic solution: objective 212.0000000
Presolve removed 2253 rows and 903 columns
Presolve time: 0.02s
Presolved: 1832 rows, 2204 columns, 6925 nonzeros
Variable types: 1174 continuous, 1030 integer (1030 binary)

Root relaxation: objective 1.690000e+02, 883 iterations, 0.01 seconds (0.01 work units)

    Nodes    |    Current Node    |     Objective Bounds      |     Work
 Expl Unexpl |  Obj  Depth IntInf | Incumbent    BestBd   Gap | It/Node Time

     0     0  169.00000    0    5  212.00000  169.00000  20.3%     -    0s
H    0     0                     207.0000000  169.00000  18.4%     -    0s
H    0     0                     200.0000000  169.00000  15.5%     -    0s
     0     0  169.00000    0    4  200.00000  169.00000  15.5%     -    0s
H    0     0                     169.0000000  169.00000  0.00%     -    0s
     0     0  169.00000    0    4  169.00000  169.00000  0.00%     -    0s

Cutting planes:
  Flow cover: 2

Explored 1 nodes (1122 simplex iterations) in 0.09 seconds (0.05 work units)
Thread count was 1 (of 16 available processors)

Solution count 4: 169 200 207 212 

Optimal solution found (tolerance 1.00e-04)
Best objective 1.690000000000e+02, best bound 1.690000000000e+02, gap 0.0000%

User-callback calls 403, time in user-callback 0.00 sec

 sepatime0 0 0
169.0Stat(MathOptInterface.OPTIMAL, 169.0, 169.0, 0.0, 0.0, 1.324983, 0.09052109718322754, 1, Main.CFLG.LEFPAD, "", #undef)
